This is Ipopt version trunk, running with linear solver mumps.

Number of nonzeros in equality constraint Jacobian...:     6060
Number of nonzeros in inequality constraint Jacobian.:        1
Number of nonzeros in Lagrangian Hessian.............:        0

Total number of variables............................:      555
                     variables with only lower bounds:        0
                variables with lower and upper bounds:      555
                     variables with only upper bounds:        0
Total number of equality constraints.................:      490
Total number of inequality constraints...............:        1
        inequality constraints with only lower bounds:        0
   inequality constraints with lower and upper bounds:        1
        inequality constraints with only upper bounds:        0

iter    objective    inf_pr   inf_du lg(mu)  ||d||  lg(rg) alpha_du alpha_pr  ls
   0  4.6369383e+04 5.96e+00 1.00e+02   0.0 0.00e+00    -  0.00e+00 0.00e+00   0
   1  4.6373386e+04 5.72e+00 9.60e+01  -0.4 5.71e+00    -  3.66e-01 4.04e-02f  1
   2  4.6401013e+04 4.52e+00 9.72e+01  -0.1 5.87e+00    -  9.35e-01 1.80e-01f  1
   3  4.6593922e+04 2.64e+00 5.76e+01   0.8 1.39e+01    -  2.58e-01 3.89e-01f  1
   4  4.6598000e+04 2.13e+00 4.67e+01  -5.4 2.28e+00    -  3.94e-01 1.90e-01h  1
   5  4.6635098e+04 1.18e+00 1.15e+01   0.1 1.90e+00    -  7.55e-01 7.09e-01f  1
   6  4.6635056e+04 3.85e-01 1.01e+02  -0.2 6.13e-01    -  8.28e-01 9.96e-01f  1
   7  4.6599162e+04 6.49e-03 1.60e+01  -1.0 7.14e-01    -  9.96e-01 1.00e+00f  1
   8  4.6582320e+04 4.79e-03 4.52e+01  -2.1 6.18e-01    -  1.00e+00 5.27e-01f  1
   9  4.6558845e+04 1.41e-02 2.24e+00  -2.7 6.41e-01    -  1.00e+00 9.72e-01f  1
iter    objective    inf_pr   inf_du lg(mu)  ||d||  lg(rg) alpha_du alpha_pr  ls
  10  4.6556637e+04 1.22e-02 1.45e+01  -3.6 4.27e-01    -  1.00e+00 1.57e-01f  1
  11  4.6548570e+04 9.29e-03 5.43e-01  -4.2 3.91e-01    -  1.00e+00 6.40e-01f  1
  12  4.6537928e+04 1.04e-02 4.06e-01  -4.3 3.78e-01    -  1.00e+00 8.82e-01f  1
  13  4.6534430e+04 8.42e-03 6.84e+00  -5.0 3.82e-01    -  1.00e+00 2.86e-01f  1
  14  4.6534178e+04 8.21e-03 1.39e+01  -5.0 3.33e-01    -  1.00e+00 2.65e-02h  1
  15  4.6529494e+04 1.08e-02 8.26e+00  -5.8 3.32e-01    -  1.00e+00 5.13e-01f  1
  16  4.6529246e+04 1.04e-02 1.98e+01  -4.8 2.84e-01    -  1.00e+00 3.29e-02h  1
  17  4.6525736e+04 9.80e-03 7.48e+00  -5.2 2.73e-01    -  1.00e+00 4.86e-01f  1
  18  4.6525656e+04 9.68e-03 1.78e+01  -5.2 2.48e-01    -  1.00e+00 1.24e-02h  1
  19  4.6521175e+04 6.86e-03 2.60e-01  -4.2 2.41e-01    -  1.00e+00 7.60e-01f  1
iter    objective    inf_pr   inf_du lg(mu)  ||d||  lg(rg) alpha_du alpha_pr  ls
  20  4.6515240e+04 7.86e-03 2.47e-01  -4.8 2.42e-01    -  1.00e+00 1.00e+00f  1
  21  4.6509241e+04 7.86e-03 2.48e-01  -5.9 2.42e-01    -  1.00e+00 1.00e+00f  1
  22  4.6508217e+04 6.76e-03 2.45e+01  -6.1 2.43e-01    -  1.00e+00 1.69e-01f  1
  23  4.6508203e+04 6.74e-03 3.26e+01  -5.7 2.33e-01    -  1.00e+00 2.50e-03h  1
  24  4.6503773e+04 1.13e-02 1.98e+00  -5.1 2.29e-01    -  1.00e+00 9.15e-01f  1
  25  4.6503038e+04 9.84e-03 7.20e+00  -4.1 2.28e-01    -  1.00e+00 1.54e-01h  1
  26  4.6502818e+04 9.40e-03 7.49e+00  -4.8 2.26e-01    -  1.00e+00 4.70e-02h  1
  27  4.6499640e+04 1.15e-02 4.40e-01  -4.3 2.02e-01    -  1.00e+00 8.35e-01f  1
  28  4.6498635e+04 9.41e-03 3.36e+00  -4.5 2.02e-01    -  1.00e+00 2.68e-01h  1
  29  4.6489244e+04 8.80e-02 2.02e+00  -2.5 2.21e+03    -  1.90e-03 2.34e-04f  1
iter    objective    inf_pr   inf_du lg(mu)  ||d||  lg(rg) alpha_du alpha_pr  ls
  30  4.6482783e+04 1.59e-01 2.01e+01  -2.4 2.38e+02    -  7.26e-02 1.50e-03f  1
  31  4.6466110e+04 4.12e-01 8.16e+02  -1.9 5.71e+01    -  1.00e+00 1.28e-02f  1
  32  4.6446282e+04 8.14e-01 6.27e+02  -1.7 5.18e+00    -  1.00e+00 3.83e-01f  1
  33  4.6441392e+04 5.76e-01 3.41e-01  -2.0 1.52e+00    -  1.00e+00 1.00e+00h  1
  34  4.6436779e+04 6.75e-01 1.49e+01  -2.2 9.24e-01    -  9.44e-01 1.00e+00h  1
  35  4.6435627e+04 6.90e-01 2.42e-01  -2.3 8.07e-01    -  1.00e+00 1.00e+00h  1
  36  4.6433362e+04 2.74e-01 2.20e+00  -2.6 3.74e-01    -  9.82e-01 1.00e+00h  1
  37  4.6432535e+04 1.99e-01 1.90e+00  -2.8 4.09e-01    -  1.00e+00 9.82e-01h  1
  38  4.6431372e+04 6.91e-02 7.36e-02  -3.2 5.19e-01    -  1.00e+00 1.00e+00h  1
  39  4.6430820e+04 5.46e-01 1.09e+01  -3.2 1.99e+00    -  8.97e-01 6.70e-01h  1
iter    objective    inf_pr   inf_du lg(mu)  ||d||  lg(rg) alpha_du alpha_pr  ls
  40  4.6430944e+04 8.16e-01 2.54e-01  -3.0 7.52e-01    -  1.00e+00 1.00e+00h  1
  41  4.6431816e+04 5.86e-01 8.78e-02  -2.7 5.84e-01    -  1.00e+00 1.00e+00h  1
  42  4.6431721e+04 1.76e-01 4.57e-02  -2.8 4.67e-01    -  1.00e+00 1.00e+00h  1
  43  4.6431733e+04 1.40e-01 6.42e-02  -2.8 3.25e-01    -  1.00e+00 1.00e+00h  1
  44  4.6430504e+04 7.69e-02 3.57e-01  -3.4 4.07e-01    -  9.81e-01 1.00e+00h  1
  45  4.6429955e+04 5.23e-01 1.96e-01  -3.7 9.27e-01    -  9.99e-01 1.00e+00h  1
  46  4.6430362e+04 7.35e-01 8.65e+00  -3.0 8.89e-01    -  9.08e-01 1.00e+00h  1
  47  4.6431246e+04 1.34e+00 1.11e-01  -2.7 6.96e-01    -  1.00e+00 1.00e+00h  1
  48  4.6430843e+04 6.23e-01 5.70e+00  -2.8 5.74e-01    -  9.42e-01 1.00e+00h  1
  49  4.6431531e+04 3.62e-02 3.90e-02  -2.8 3.77e-01    -  1.00e+00 1.00e+00h  1
iter    objective    inf_pr   inf_du lg(mu)  ||d||  lg(rg) alpha_du alpha_pr  ls
  50  4.6430467e+04 2.69e-02 1.13e+00  -3.3 4.24e-01    -  9.77e-01 9.34e-01h  1
  51  4.6430764e+04 3.38e-01 2.41e+01  -2.9 1.18e+00    -  1.00e+00 7.49e-01h  1
  52  4.6430449e+04 3.91e-01 1.83e-01  -3.0 3.95e-01    -  1.00e+00 1.00e+00h  1
  53  4.6429816e+04 1.91e-01 3.55e-02  -3.5 3.48e-01    -  9.98e-01 1.00e+00h  1
  54  4.6430215e+04 4.35e-02 3.27e-02  -3.3 1.85e-01    -  1.00e+00 1.00e+00h  1
  55  4.6429856e+04 4.32e-02 6.09e-02  -3.7 2.47e-01    -  9.95e-01 1.00e+00h  1
  56  4.6429972e+04 7.74e-01 2.87e-01  -3.2 1.49e+00    -  1.00e+00 1.00e+00h  1
  57  4.6429119e+04 9.92e-01 3.19e-01  -3.3 8.91e-01    -  1.00e+00 1.00e+00h  1
  58  4.6430385e+04 6.42e-01 4.87e-02  -2.8 5.86e-01    -  1.00e+00 1.00e+00h  1
  59  4.6430381e+04 2.35e-01 2.85e+00  -2.9 3.59e-01    -  1.00e+00 9.58e-01h  1
iter    objective    inf_pr   inf_du lg(mu)  ||d||  lg(rg) alpha_du alpha_pr  ls
  60  4.6430390e+04 2.04e-01 1.09e-01  -2.9 5.93e-01    -  1.00e+00 1.00e+00h  1
  61  4.6430049e+04 8.47e-01 3.90e-01  -2.9 1.77e+00    -  1.00e+00 1.00e+00h  1
  62  4.6428379e+04 2.88e+00 1.66e+01  -2.9 4.92e+00    -  5.14e-01 7.63e-01h  1
  63  4.6428213e+04 3.11e+00 2.97e+02  -2.2 5.53e+00    -  1.00e+00 1.84e-01f  1
  64  4.6439376e+04 2.53e+00 6.30e+01  -1.9 1.74e+00    -  6.98e-01 1.00e+00f  1
  65  4.6436042e+04 1.12e+00 1.88e+02  -2.0 7.82e-01    -  4.72e-01 1.00e+00h  1
  66  4.6436533e+04 3.18e-01 4.63e-02  -2.0 7.36e-01    -  1.00e+00 1.00e+00h  1
  67  4.6436922e+04 8.18e-02 2.67e-02  -2.0 1.59e-01    -  1.00e+00 1.00e+00h  1
  68  4.6431179e+04 9.54e-02 7.42e-01  -3.1 6.10e-01    -  8.23e-01 8.05e-01f  1
  69  4.6428686e+04 3.18e-01 3.81e+00  -3.1 7.63e-01    -  8.98e-01 8.09e-01h  1
iter    objective    inf_pr   inf_du lg(mu)  ||d||  lg(rg) alpha_du alpha_pr  ls
  70  4.6428102e+04 3.23e-01 6.76e-02  -3.2 4.33e-01    -  1.00e+00 1.00e+00h  1
  71  4.6427813e+04 2.10e-01 3.99e-02  -3.6 3.60e-01    -  9.99e-01 1.00e+00h  1
  72  4.6427772e+04 7.45e-02 1.40e-02  -3.8 2.26e-01    -  9.98e-01 1.00e+00h  1
  73  4.6427696e+04 6.15e-03 1.35e-02  -4.3 1.61e-01    -  1.00e+00 1.00e+00h  1
  74  4.6427623e+04 1.59e-02 8.04e+00  -4.7 1.75e+00    -  9.99e-01 1.54e-01h  1
  75  4.6427394e+04 1.98e+00 2.06e-01  -4.1 1.55e+00    -  1.00e+00 1.00e+00h  1
  76  4.6426359e+04 1.33e+00 3.42e-02  -3.5 1.01e+00    -  1.00e+00 1.00e+00h  1
  77  4.6428084e+04 1.97e-01 3.26e-02  -3.2 9.40e-01    -  1.00e+00 1.00e+00h  1
  78  4.6427967e+04 1.82e-01 2.52e-02  -3.3 3.62e-01    -  1.00e+00 1.00e+00h  1
  79  4.6428056e+04 4.57e-02 8.33e-03  -3.3 2.34e-01    -  1.00e+00 1.00e+00h  1
iter    objective    inf_pr   inf_du lg(mu)  ||d||  lg(rg) alpha_du alpha_pr  ls
  80  4.6428099e+04 8.96e-03 6.38e-03  -3.3 7.40e-02    -  1.00e+00 1.00e+00h  1
  81  4.6427632e+04 7.27e-03 1.01e-01  -4.4 1.08e-01    -  9.99e-01 9.75e-01h  1
  82  4.6427599e+04 1.71e-03 1.92e-01  -4.6 6.52e-02    -  1.00e+00 9.79e-01h  1
  83  4.6427582e+04 1.88e-03 1.18e+00  -4.9 5.75e-02    -  1.00e+00 9.03e-01h  1
  84  4.6427570e+04 3.35e-03 1.58e-02  -5.5 4.34e-02    -  1.00e+00 9.99e-01h  1
  85  4.6427566e+04 2.88e-03 6.85e-03  -6.6 4.51e-02    -  1.00e+00 1.00e+00h  1
  86  4.6427567e+04 9.01e-04 9.21e-04  -7.4 1.95e-02    -  1.00e+00 1.00e+00h  1
  87  4.6427568e+04 3.42e-05 7.03e-04  -6.4 6.38e-03    -  1.00e+00 1.00e+00h  1
  88  4.6427567e+04 5.83e-04 6.50e+00  -6.4 7.07e-02    -  1.00e+00 8.39e-01h  1
  89  4.6427564e+04 1.77e-02 3.10e-02  -7.4 1.27e-01    -  1.00e+00 1.00e+00h  1
iter    objective    inf_pr   inf_du lg(mu)  ||d||  lg(rg) alpha_du alpha_pr  ls
  90  4.6427550e+04 1.57e-02 6.09e-03  -7.8 1.02e-01    -  1.00e+00 1.00e+00h  1
  91  4.6427564e+04 5.52e-03 1.15e-02  -7.8 7.26e-02    -  1.00e+00 1.00e+00h  1
  92  4.6427563e+04 2.97e-03 4.70e-04  -8.8 5.59e-02    -  1.00e+00 1.00e+00h  1
  93  4.6427567e+04 1.65e-04 1.26e-03  -7.9 9.57e-03    -  1.00e+00 1.00e+00h  1
  94  4.6427567e+04 8.59e-05 4.06e-04  -7.6 6.35e-03    -  1.00e+00 1.00e+00h  1
  95  4.6427567e+04 5.67e-06 1.43e-04  -8.1 1.37e-03    -  1.00e+00 1.00e+00h  1
  96  4.6427567e+04 1.29e-06 3.82e-04  -7.8 2.43e-03    -  1.00e+00 1.00e+00h  1
  97  4.6427566e+04 1.32e-03 2.36e-01  -9.0 9.61e-02    -  1.00e+00 9.97e-01h  1
  98  4.6427565e+04 2.25e-03 1.05e-02  -9.1 3.04e-02    -  1.00e+00 1.00e+00h  1
  99  4.6427565e+04 1.21e-03 1.17e-03  -9.9 4.87e-02    -  1.00e+00 1.00e+00h  1
iter    objective    inf_pr   inf_du lg(mu)  ||d||  lg(rg) alpha_du alpha_pr  ls
 100  4.6427567e+04 1.86e-04 1.13e-03  -9.2 1.28e-02    -  1.00e+00 1.00e+00h  1
 101  4.6427567e+04 1.24e-04 1.30e-04 -10.1 1.14e-02    -  1.00e+00 1.00e+00h  1
 102  4.6427567e+04 5.79e-07 1.13e-04 -11.0 6.55e-04    -  1.00e+00 1.00e+00h  1
 103  4.6427567e+04 6.87e-07 2.29e-04 -11.0 1.19e-03    -  1.00e+00 1.00e+00h  1
 104  4.6427567e+04 1.48e-05 8.53e-04 -11.0 5.19e-03    -  1.00e+00 1.00e+00h  1
 105  4.6427567e+04 3.42e-05 8.18e-04 -11.0 4.40e-03    -  1.00e+00 1.00e+00h  1
 106  4.6427567e+04 1.61e-05 1.71e-04 -11.0 3.68e-03    -  1.00e+00 1.00e+00h  1
 107  4.6427567e+04 2.73e-06 7.44e-05 -11.0 1.74e-03    -  1.00e+00 1.00e+00h  1
 108  4.6427567e+04 1.01e-06 2.29e-05 -11.0 8.80e-04    -  1.00e+00 1.00e+00h  1
 109  4.6427567e+04 2.42e-08 2.35e-05 -11.0 2.33e-04    -  1.00e+00 1.00e+00h  1
iter    objective    inf_pr   inf_du lg(mu)  ||d||  lg(rg) alpha_du alpha_pr  ls
 110  4.6427567e+04 6.00e-07 2.28e-04 -11.0 2.81e-03    -  1.00e+00 1.00e+00h  1
 111  4.6427567e+04 8.38e-06 4.70e-04 -11.0 4.51e-03    -  1.00e+00 1.00e+00h  1
 112  4.6427567e+04 6.99e-06 6.05e-05 -11.0 4.40e-03    -  1.00e+00 1.00e+00h  1
 113  4.6427567e+04 5.22e-06 2.15e-04 -11.0 1.79e-03    -  1.00e+00 1.00e+00h  1
 114  4.6427567e+04 4.09e-06 2.79e-06 -11.0 1.57e-03    -  1.00e+00 1.00e+00h  1
 115  4.6427567e+04 1.00e-08 2.51e-06 -11.0 2.18e-05    -  1.00e+00 1.00e+00h  1
 116  4.6427567e+04 1.00e-08 1.92e-05 -11.0 1.37e-04    -  1.00e+00 1.00e+00h  1
 117  4.6427567e+04 1.00e-08 1.92e+02  -9.0 9.71e-05    -  6.59e-01 1.00e+00h  1
 118  4.6427567e+04 1.78e-08 4.04e-05  -9.3 1.21e-04    -  1.00e+00 1.00e+00h  1
 119  4.6427567e+04 2.16e-08 4.48e-05  -9.3 1.56e-04    -  1.00e+00 1.00e+00h  1
iter    objective    inf_pr   inf_du lg(mu)  ||d||  lg(rg) alpha_du alpha_pr  ls
 120  4.6427567e+04 1.30e-08 1.41e-05  -9.3 1.24e-04    -  1.00e+00 1.00e+00h  1
 121  4.6427567e+04 5.59e-09 7.11e+00  -9.3 6.60e-05    -  7.30e-01 1.00e+00h  1
 122  4.6427567e+04 5.11e-10 2.44e-06  -9.3 2.82e-05    -  1.00e+00 1.00e+00h  1
 123  4.6427567e+04 2.81e-09 5.68e-03 -11.0 7.90e-05    -  1.00e+00 9.06e-01h  1
 124  4.6427567e+04 1.09e-08 2.93e-05 -10.9 2.01e-04    -  1.00e+00 1.00e+00h  1
 125  4.6427567e+04 2.80e-08 2.89e-05 -11.0 1.27e-04    -  1.00e+00 1.00e+00h  1
 126  4.6427567e+04 1.50e-08 2.86e-06 -11.0 1.31e-04    -  1.00e+00 1.00e+00h  1
 127  4.6427567e+04 5.27e-10 2.17e-06 -11.0 2.36e-05    -  1.00e+00 1.00e+00h  1
 128  4.6427567e+04 4.79e-10 2.54e-06 -11.0 2.21e-05    -  1.00e+00 1.00e+00h  1
 129  4.6427567e+04 2.04e-10 2.43e-06 -11.0 1.05e-05    -  1.00e+00 1.00e+00h  1
iter    objective    inf_pr   inf_du lg(mu)  ||d||  lg(rg) alpha_du alpha_pr  ls
 130  4.6427567e+04 3.47e-11 2.69e-06 -11.0 1.48e-05    -  1.00e+00 1.00e+00h  1
 131  4.6427567e+04 1.07e-08 3.60e-05 -11.0 2.20e-04    -  1.00e+00 1.00e+00h  1
 132  4.6427567e+04 1.12e-08 7.48e-06 -11.0 1.38e-04    -  1.00e+00 1.00e+00h  1
 133  4.6427567e+04 9.95e-13 3.79e-05 -11.0 2.72e-04    -  1.00e+00 1.00e+00H  1
 134  4.6427567e+04 2.59e-08 4.83e-06 -11.0 2.03e-04    -  1.00e+00 1.00e+00h  1
 135  4.6427567e+04 1.73e-08 2.14e-05 -11.0 1.47e-04    -  1.00e+00 1.00e+00h  1
 136  4.6427567e+04 1.16e-08 2.53e-06 -11.0 1.13e-04    -  1.00e+00 1.00e+00h  1
 137  4.6427567e+04 1.42e-09 4.35e-06 -11.0 3.36e-05    -  1.00e+00 1.00e+00h  1
 138  4.6427567e+04 7.59e-10 1.02e-06 -11.0 2.51e-05    -  1.00e+00 1.00e+00h  1
 139  4.6427567e+04 1.83e-11 2.85e-07 -11.0 2.25e-06    -  1.00e+00 1.00e+00h  1
iter    objective    inf_pr   inf_du lg(mu)  ||d||  lg(rg) alpha_du alpha_pr  ls
 140  4.6427567e+04 4.47e-12 5.65e-08 -11.0 1.16e-06    -  1.00e+00 1.00e+00h  1

Number of Iterations....: 140

                                   (scaled)                 (unscaled)
Objective...............:   4.6427566649430046e+03    4.6427566650069210e+04
Dual infeasibility......:   5.6538038312920955e-08    5.6538038313699298e-07
Constraint violation....:   4.4728665216098307e-12    4.4728665216098307e-12
Complementarity.........:   1.0048799719736299e-11    1.0048799719874640e-10
Overall NLP error.......:   5.6538038312920955e-08    5.6538038313699298e-07


Number of objective function evaluations             = 142
Number of objective gradient evaluations             = 141
Number of equality constraint evaluations            = 142
Number of inequality constraint evaluations          = 142
Number of equality constraint Jacobian evaluations   = 141
Number of inequality constraint Jacobian evaluations = 141
Number of Lagrangian Hessian evaluations             = 0
Total CPU secs in IPOPT (w/o function evaluations)   =      0.753
Total CPU secs in NLP function evaluations           =      4.641

EXIT: Optimal Solution Found.
